Version identifier: 20.1.0.0 | 2020-11-10 | 9bedb6d68
Tried aggregator 15 times.
MIP Presolve eliminated 1067 rows and 668 columns.
MIP Presolve modified 1200 coefficients.
Aggregator did 176 substitutions.
All rows and columns eliminated.
Presolve time = 0.01 sec. (4.60 ticks)

Root node processing (before b&c):
  Real time             =    0.01 sec. (4.74 ticks)
Parallel b&c, 24 threads:
  Real time             =    0.00 sec. (0.00 ticks)
  Sync time (average)   =    0.00 sec.
  Wait time (average)   =    0.00 sec.
                          ------------
Total (root+branch&cut) =    0.01 sec. (4.74 ticks)

Solution status = Optimal
Solution LB = 6
Solution UB = 6
Runtime = 0.0176251 seconds
	Command being timed: "/home/min/git_repos/CS598MEBProject/CNT-ILP/build/cnt -s 2 ./output/k4_n40/simC_c1_k4_n40_u1_s3_del04.input-right.cnp"
	User time (seconds): 0.02
	System time (seconds): 0.00
	Percent of CPU this job got: 93%
	Elapsed (wall clock) time (h:mm:ss or m:ss): 0:00.03
	Average shared text size (kbytes): 0
	Average unshared data size (kbytes): 0
	Average stack size (kbytes): 0
	Average total size (kbytes): 0
	Maximum resident set size (kbytes): 16240
	Average resident set size (kbytes): 0
	Major (requiring I/O) page faults: 0
	Minor (reclaiming a frame) page faults: 1064
	Voluntary context switches: 93
	Involuntary context switches: 2
	Swaps: 0
	File system inputs: 0
	File system outputs: 16
	Socket messages sent: 0
	Socket messages received: 0
	Signals delivered: 0
	Page size (bytes): 4096
	Exit status: 0
